p cnf 220 528
1 0
7 -8 0
-7 8 0
9 -10 0
-9 10 0
6 -7 0
6 -9 0
-6 7 9 0
11 -12 0
-11 12 0
5 -6 0
5 -11 0
-5 6 11 0
-14 6 0
14 -6 0
15 12 0
-15 -12 0
13 -14 0
13 -15 0
-13 14 15 0
-4 5 0
-4 13 0
4 -5 -13 0
18 -8 0
-18 8 0
19 10 0
-19 -10 0
17 -18 0
17 -19 0
-17 18 19 0
20 -12 0
-20 12 0
16 -17 0
16 -20 0
-16 17 20 0
-3 4 0
-3 16 0
3 -4 -16 0
-24 3 0
24 -3 0
34 -35 0
-34 35 0
36 37 0
-36 -37 0
-33 34 0
-33 36 0
33 -34 -36 0
38 39 0
-38 -39 0
-32 33 0
-32 38 0
32 -33 -38 0
42 43 0
-42 -43 0
44 45 0
-44 -45 0
-41 42 0
-41 44 0
41 -42 -44 0
46 47 0
-46 -47 0
-40 41 0
-40 46 0
40 -41 -46 0
-31 32 0
-31 40 0
31 -32 -40 0
51 35 0
-51 -35 0
52 37 0
-52 -37 0
-50 51 0
-50 52 0
50 -51 -52 0
53 39 0
-53 -39 0
-49 50 0
-49 53 0
49 -50 -53 0
56 43 0
-56 -43 0
57 -45 0
-57 45 0
-55 56 0
-55 57 0
55 -56 -57 0
58 -47 0
-58 47 0
-54 55 0
-54 58 0
54 -55 -58 0
-48 49 0
-48 54 0
48 -49 -54 0
30 -31 0
30 -48 0
-30 31 48 0
62 35 0
-62 -35 0
63 -37 0
-63 37 0
-61 62 0
-61 63 0
61 -62 -63 0
64 -39 0
-64 39 0
-60 61 0
-60 64 0
60 -61 -64 0
67 -43 0
-67 43 0
68 45 0
-68 -45 0
-66 67 0
-66 68 0
66 -67 -68 0
69 47 0
-69 -47 0
-65 66 0
-65 69 0
65 -66 -69 0
-59 60 0
-59 65 0
59 -60 -65 0
29 -30 0
29 -59 0
-29 30 59 0
-72 61 0
72 -61 0
73 39 0
-73 -39 0
-71 72 0
-71 73 0
71 -72 -73 0
-75 55 0
75 -55 0
76 47 0
-76 -47 0
-74 75 0
-74 76 0
74 -75 -76 0
-70 71 0
-70 74 0
70 -71 -74 0
28 -29 0
28 -70 0
-28 29 70 0
-78 49 0
78 -49 0
-79 74 0
79 -74 0
-77 78 0
-77 79 0
77 -78 -79 0
27 -28 0
27 -77 0
-27 28 77 0
-82 50 0
82 -50 0
83 -39 0
-83 39 0
-81 82 0
-81 83 0
81 -82 -83 0
-85 41 0
85 -41 0
86 -47 0
-86 47 0
-84 85 0
-84 86 0
84 -85 -86 0
-80 81 0
-80 84 0
80 -81 -84 0
26 -27 0
26 -80 0
-26 27 80 0
-88 49 0
88 -49 0
-89 84 0
89 -84 0
-87 88 0
-87 89 0
87 -88 -89 0
25 -26 0
25 -87 0
-25 26 87 0
-23 24 0
-23 25 0
23 -24 -25 0
-91 3 0
91 -3 0
-99 32 0
99 -32 0
102 8 0
-102 -8 0
103 10 0
-103 -10 0
-101 102 0
-101 103 0
101 -102 -103 0
104 12 0
-104 -12 0
-100 101 0
-100 104 0
100 -101 -104 0
-98 99 0
-98 100 0
98 -99 -100 0
-106 49 0
106 -49 0
109 8 0
-109 -8 0
110 -10 0
-110 10 0
-108 109 0
-108 110 0
108 -109 -110 0
111 -12 0
-111 12 0
-107 108 0
-107 111 0
107 -108 -111 0
-105 106 0
-105 107 0
105 -106 -107 0
97 -98 0
97 -105 0
-97 98 105 0
-113 60 0
113 -60 0
116 -8 0
-116 8 0
117 10 0
-117 -10 0
-115 116 0
-115 117 0
115 -116 -117 0
118 12 0
-118 -12 0
-114 115 0
-114 118 0
114 -115 -118 0
-112 113 0
-112 114 0
112 -113 -114 0
96 -97 0
96 -112 0
-96 97 112 0
-120 71 0
120 -71 0
-122 108 0
122 -108 0
123 12 0
-123 -12 0
-121 122 0
-121 123 0
121 -122 -123 0
-119 120 0
-119 121 0
119 -120 -121 0
95 -96 0
95 -119 0
-95 96 119 0
-125 49 0
125 -49 0
-126 121 0
126 -121 0
-124 125 0
-124 126 0
124 -125 -126 0
94 -95 0
94 -124 0
-94 95 124 0
-128 81 0
128 -81 0
-130 101 0
130 -101 0
131 -12 0
-131 12 0
-129 130 0
-129 131 0
129 -130 -131 0
-127 128 0
-127 129 0
127 -128 -129 0
93 -94 0
93 -127 0
-93 94 127 0
-133 49 0
133 -49 0
-134 129 0
134 -129 0
-132 133 0
-132 134 0
132 -133 -134 0
92 -93 0
92 -132 0
-92 93 132 0
-90 91 0
-90 92 0
90 -91 -92 0
22 -23 0
22 -90 0
-22 23 90 0
-136 3 0
136 -3 0
-144 32 0
144 -32 0
-145 49 0
145 -49 0
-143 144 0
-143 145 0
143 -144 -145 0
-147 49 0
147 -49 0
-148 60 0
148 -60 0
-146 147 0
-146 148 0
146 -147 -148 0
142 -143 0
142 -146 0
-142 143 146 0
-150 60 0
150 -60 0
-151 32 0
151 -32 0
-149 150 0
-149 151 0
149 -150 -151 0
141 -142 0
141 -149 0
-141 142 149 0
-153 71 0
153 -71 0
-154 71 0
154 -71 0
-152 153 0
-152 154 0
152 -153 -154 0
140 -141 0
140 -152 0
-140 141 152 0
-156 49 0
156 -49 0
-157 71 0
157 -71 0
-155 156 0
-155 157 0
155 -156 -157 0
139 -140 0
139 -155 0
-139 140 155 0
-159 81 0
159 -81 0
-160 81 0
160 -81 0
-158 159 0
-158 160 0
158 -159 -160 0
138 -139 0
138 -158 0
-138 139 158 0
-162 49 0
162 -49 0
-163 81 0
163 -81 0
-161 162 0
-161 163 0
161 -162 -163 0
137 -138 0
137 -161 0
-137 138 161 0
-135 136 0
-135 137 0
135 -136 -137 0
21 -22 0
21 -135 0
-21 22 135 0
2 -3 0
2 -21 0
-2 3 21 0
-173 65 0
173 -65 0
-174 100 0
174 -100 0
-172 173 0
-172 174 0
172 -173 -174 0
-176 40 0
176 -40 0
-177 107 0
177 -107 0
-175 176 0
-175 177 0
175 -176 -177 0
171 -172 0
171 -175 0
-171 172 175 0
-179 54 0
179 -54 0
-180 114 0
180 -114 0
-178 179 0
-178 180 0
178 -179 -180 0
170 -171 0
170 -178 0
-170 171 178 0
-182 74 0
182 -74 0
-183 121 0
183 -121 0
-181 182 0
-181 183 0
181 -182 -183 0
169 -170 0
169 -181 0
-169 170 181 0
-185 40 0
185 -40 0
-186 121 0
186 -121 0
-184 185 0
-184 186 0
184 -185 -186 0
168 -169 0
168 -184 0
-168 169 184 0
-188 84 0
188 -84 0
-189 129 0
189 -129 0
-187 188 0
-187 189 0
187 -188 -189 0
167 -168 0
167 -187 0
-167 168 187 0
-191 40 0
191 -40 0
-192 129 0
192 -129 0
-190 191 0
-190 192 0
190 -191 -192 0
166 -167 0
166 -190 0
-166 167 190 0
-200 114 0
200 -114 0
-201 49 0
201 -49 0
-199 200 0
-199 201 0
199 -200 -201 0
-203 100 0
203 -100 0
-204 60 0
204 -60 0
-202 203 0
-202 204 0
202 -203 -204 0
198 -199 0
198 -202 0
-198 199 202 0
-206 107 0
206 -107 0
-207 32 0
207 -32 0
-205 206 0
-205 207 0
205 -206 -207 0
197 -198 0
197 -205 0
-197 198 205 0
-209 121 0
209 -121 0
-210 71 0
210 -71 0
-208 209 0
-208 210 0
208 -209 -210 0
196 -197 0
196 -208 0
-196 197 208 0
-212 100 0
212 -100 0
-213 71 0
213 -71 0
-211 212 0
-211 213 0
211 -212 -213 0
195 -196 0
195 -211 0
-195 196 211 0
-215 129 0
215 -129 0
-216 81 0
216 -81 0
-214 215 0
-214 216 0
214 -215 -216 0
194 -195 0
194 -214 0
-194 195 214 0
-218 100 0
218 -100 0
-219 81 0
219 -81 0
-217 218 0
-217 219 0
217 -218 -219 0
193 -194 0
193 -217 0
-193 194 217 0
-165 166 0
-165 193 0
165 -166 -193 0
-220 40 0
220 -40 0
-164 165 0
-164 220 0
164 -165 -220 0
-1 2 0
-1 164 0
1 -2 -164 0
